p tw 849 1503
1 426
1 427
1 615
1 616
2 631
2 632
3 722
3 723
4 646
4 647
5 800
5 801
6 378
6 379
7 533
7 534
8 633
8 634
9 818
9 819
10 126
10 454
10 455
10 546
10 547
10 558
11 355
11 356
11 555
11 556
11 571
11 572
12 413
12 414
12 593
12 594
12 815
12 816
13 418
13 419
13 606
13 607
13 830
13 831
14 441
14 442
14 572
14 573
15 715
15 716
16 530
16 531
17 637
17 638
18 656
18 657
19 464
19 465
19 664
19 665
20 356
20 357
20 573
20 574
21 737
21 738
22 357
22 358
23 488
23 489
24 404
24 405
24 583
24 584
25 370
25 371
25 553
25 554
26 707
26 708
27 532
27 533
28 720
28 721
29 448
29 449
30 526
30 527
31 823
31 824
32 778
32 779
33 456
33 457
33 654
33 655
33 727
33 728
34 377
34 378
34 682
34 683
34 756
34 757
35 700
35 701
36 528
36 529
37 353
37 354
38 698
38 699
39 779
39 780
40 506
40 507
41 375
41 376
41 753
41 754
42 640
42 641
43 806
43 807
44 415
44 416
44 557
44 558
44 602
44 603
45 376
45 377
46 399
46 400
46 790
46 791
47 672
47 673
48 624
48 625
49 509
49 510
49 811
49 812
50 787
50 788
51 772
51 773
52 754
52 755
53 642
53 643
54 706
54 707
55 421
55 422
56 481
56 482
57 639
57 640
58 662
58 663
59 735
59 736
60 741
60 742
61 517
61 518
61 832
61 833
62 807
62 808
63 804
63 805
64 671
64 672
65 423
65 424
65 612
65 613
65 843
65 844
66 359
66 360
67 626
67 627
68 516
68 517
69 473
69 474
69 677
69 678
70 667
70 668
71 360
71 361
72 717
72 718
73 354
73 355
73 570
73 571
74 782
74 783
75 799
75 800
76 839
76 840
77 489
77 490
78 139
78 427
78 428
78 687
79 452
79 453
79 652
79 653
80 438
80 439
80 699
80 700
81 455
81 456
81 545
81 546
82 679
82 680
83 350
83 351
83 692
83 693
84 777
84 778
85 461
85 462
85 589
85 590
86 462
86 463
87 422
87 423
87 841
87 842
88 650
88 651
89 810
89 811
90 439
90 440
90 629
90 630
91 638
91 639
92 791
92 792
93 521
93 522
94 403
94 404
95 109
95 450
95 451
95 556
96 829
96 830
97 773
97 774
98 480
98 481
99 465
99 466
99 592
99 593
100 475
100 476
101 848
101 849
102 657
102 658
103 658
103 659
104 846
104 847
105 497
105 498
105 796
105 797
106 388
106 389
107 301
107 468
107 469
107 525
107 598
107 599
108 817
108 818
109 467
109 468
109 556
109 746
109 747
110 834
110 835
111 361
111 362
112 529
112 530
113 670
113 671
113 820
113 821
114 476
114 477
115 649
115 650
116 442
116 443
117 490
117 491
117 552
117 553
117 569
117 570
118 520
118 521
118 840
118 841
119 793
119 794
120 514
120 515
121 410
121 411
121 591
121 592
122 745
122 746
123 647
123 648
124 761
124 762
125 696
125 697
126 243
126 494
126 495
126 558
126 689
127 447
127 448
127 551
127 552
128 628
128 629
128 781
128 782
129 396
129 397
129 576
129 577
130 492
130 493
130 632
130 633
131 374
131 375
131 547
131 548
131 607
131 608
132 296
132 541
133 714
133 715
134 433
134 434
135 668
135 669
135 744
135 745
136 487
136 488
136 621
136 622
137 484
137 485
137 684
137 685
137 762
137 763
138 666
138 667
139 169
139 266
139 428
139 429
139 617
139 687
139 849
140 478
140 479
140 683
140 684
140 757
140 758
141 474
141 475
141 608
141 609
142 803
142 804
143 694
143 695
144 838
144 839
145 510
145 511
145 665
145 666
146 795
146 796
147 723
147 724
148 766
148 767
149 808
149 809
150 845
150 846
151 669
151 670
151 819
151 820
152 493
152 494
153 842
153 843
154 648
154 649
155 384
155 385
155 767
155 768
156 518
156 519
156 609
156 610
156 680
156 681
157 435
157 436
157 548
157 549
157 563
157 564
158 402
158 403
159 446
159 447
159 712
159 713
160 436
160 437
160 565
160 566
161 786
161 787
162 507
162 508
163 719
163 720
164 408
164 409
165 713
165 714
166 780
166 781
167 389
167 390
167 549
167 550
168 801
168 802
169 430
169 431
169 617
170 398
170 399
171 824
171 825
172 382
172 383
173 429
173 430
174 508
174 509
175 471
175 472
175 600
175 601
175 676
175 677
176 463
176 464
177 768
177 769
178 730
178 731
179 685
179 686
180 701
180 702
181 847
181 848
182 630
182 631
182 783
182 784
183 831
183 832
184 742
184 743
185 726
185 727
186 788
186 789
187 536
187 537
188 362
188 363
188 578
188 579
189 451
189 452
190 774
190 775
191 752
191 753
192 486
192 487
193 391
193 392
194 500
194 501
194 579
194 580
195 364
195 365
195 729
195 730
196 392
196 393
196 567
196 568
197 725
197 726
198 349
198 350
198 559
198 560
199 802
199 803
200 511
200 512
200 816
200 817
201 470
201 471
201 675
201 676
202 724
202 725
203 395
203 396
204 805
204 806
205 826
205 827
206 372
206 373
206 527
206 528
206 601
206 602
206 750
206 751
207 381
207 382
207 613
207 614
207 763
207 764
208 390
208 391
208 566
208 567
209 655
209 656
210 775
210 776
211 702
211 703
212 466
212 467
212 595
212 596
213 794
213 795
214 673
214 674
215 411
215 412
216 437
216 438
217 352
217 353
217 562
217 563
218 622
218 623
219 440
219 441
219 703
219 704
220 749
220 750
221 365
221 366
221 587
221 588
222 634
222 635
223 643
223 644
224 709
224 710
225 731
225 732
226 400
226 401
227 366
227 367
227 588
227 589
228 828
228 829
229 351
229 352
229 561
229 562
230 705
230 706
231 369
231 370
231 590
231 591
232 759
232 760
233 425
233 426
233 614
233 615
234 512
234 513
235 620
235 621
236 393
236 394
236 785
236 786
237 716
237 717
238 636
238 637
239 431
239 432
240 627
240 628
241 743
241 744
242 420
242 421
242 610
242 611
242 835
242 836
243 689
244 457
244 458
244 728
244 729
245 453
245 454
245 544
245 545
245 585
245 586
246 371
246 372
246 596
246 597
247 373
247 374
247 603
247 604
248 837
248 838
249 501
249 502
249 581
249 582
250 449
250 450
250 540
250 541
250 718
250 719
251 827
251 828
252 482
252 483
252 758
252 759
253 645
253 646
254 681
254 682
255 625
255 626
256 387
256 388
257 748
257 749
258 394
258 395
258 635
258 636
259 538
259 539
260 406
260 407
261 739
261 740
262 479
262 480
262 524
262 525
262 611
262 612
263 531
263 532
263 825
263 826
264 822
264 823
265 409
265 410
265 661
265 662
265 809
265 810
266 273
266 522
266 849
267 505
267 506
268 443
268 444
268 574
268 575
268 704
268 705
269 792
269 793
270 379
270 380
271 784
271 785
272 385
272 386
272 769
272 770
273 522
273 616
273 617
274 358
274 359
274 575
274 576
275 417
275 418
275 678
275 679
276 537
276 538
277 776
277 777
278 432
278 433
278 560
278 561
278 618
278 619
278 693
278 694
279 686
279 687
279 764
279 765
280 458
280 459
280 659
280 660
281 367
281 368
282 740
282 741
283 445
283 446
283 711
283 712
284 674
284 675
285 751
285 752
286 397
286 398
286 789
286 790
287 534
287 535
287 833
287 834
288 688
288 689
289 539
289 540
290 459
290 460
291 502
291 503
291 582
291 583
292 383
292 384
292 765
292 766
293 760
293 761
294 733
294 734
295 495
295 496
295 577
295 578
296 541
297 485
297 486
298 721
298 722
299 504
299 505
299 586
299 587
300 732
300 733
301 491
301 492
301 525
301 568
301 569
302 771
302 772
303 755
303 756
304 414
304 415
304 542
304 543
304 599
304 600
305 498
305 499
305 797
305 798
306 813
306 814
307 407
307 408
307 653
307 654
308 386
308 387
308 564
308 565
309 483
309 484
309 550
309 551
310 519
310 520
310 535
310 536
311 747
311 748
312 405
312 406
312 651
312 652
313 496
313 497
313 641
313 642
314 469
314 470
315 444
315 445
316 499
316 500
316 580
316 581
317 503
317 504
317 584
317 585
318 419
318 420
318 836
318 837
319 472
319 473
319 604
319 605
320 424
320 425
320 844
320 845
321 812
321 813
322 434
322 435
323 644
323 645
324 691
324 692
325 513
325 514
325 597
325 598
326 690
326 691
327 460
327 461
327 736
327 737
328 412
328 413
328 554
328 555
328 594
328 595
329 416
329 417
330 710
330 711
331 821
331 822
332 623
332 624
333 798
333 799
334 697
334 698
335 401
335 402
336 368
336 369
336 663
336 664
336 738
336 739
337 477
337 478
338 814
338 815
339 619
339 620
340 734
340 735
341 708
341 709
342 543
342 544
343 363
343 364
344 515
344 516
344 523
344 524
344 605
344 606
345 770
345 771
346 380
346 381
347 660
347 661
348 695
348 696
349 350
350 351
351 352
352 353
353 354
354 355
355 356
356 357
357 358
358 359
359 360
360 361
361 362
362 363
363 364
364 365
365 366
366 367
367 368
368 369
369 370
370 371
371 372
372 373
373 374
374 375
375 376
376 377
377 378
378 379
379 380
380 381
381 382
382 383
383 384
384 385
385 386
386 387
387 388
388 389
389 390
390 391
391 392
392 393
393 394
394 395
395 396
396 397
397 398
398 399
399 400
400 401
401 402
402 403
403 404
404 405
405 406
406 407
407 408
408 409
409 410
410 411
411 412
412 413
413 414
414 415
415 416
416 417
417 418
418 419
419 420
420 421
421 422
422 423
423 424
424 425
425 426
426 427
427 428
428 429
429 430
430 431
431 432
432 433
433 434
434 435
435 436
436 437
437 438
438 439
439 440
440 441
441 442
442 443
443 444
444 445
445 446
446 447
447 448
448 449
449 450
450 451
451 452
452 453
453 454
454 455
455 456
456 457
457 458
458 459
459 460
460 461
461 462
462 463
463 464
464 465
465 466
466 467
467 468
468 469
469 470
470 471
471 472
472 473
473 474
474 475
475 476
476 477
477 478
478 479
479 480
480 481
481 482
482 483
483 484
484 485
485 486
486 487
487 488
488 489
489 490
490 491
491 492
492 493
493 494
494 495
495 496
496 497
497 498
498 499
499 500
500 501
501 502
502 503
503 504
504 505
505 506
506 507
507 508
508 509
509 510
510 511
511 512
512 513
513 514
514 515
515 516
516 517
517 518
518 519
519 520
520 521
521 522
523 524
524 525
526 527
527 528
528 529
529 530
530 531
531 532
532 533
533 534
534 535
535 536
536 537
537 538
538 539
539 540
540 541
542 543
543 544
544 545
545 546
546 547
547 548
548 549
549 550
550 551
551 552
552 553
553 554
554 555
555 556
557 558
559 560
560 561
561 562
562 563
563 564
564 565
565 566
566 567
567 568
568 569
569 570
570 571
571 572
572 573
573 574
574 575
575 576
576 577
577 578
578 579
579 580
580 581
581 582
582 583
583 584
584 585
585 586
586 587
587 588
588 589
589 590
590 591
591 592
592 593
593 594
594 595
595 596
596 597
597 598
598 599
599 600
600 601
601 602
602 603
603 604
604 605
605 606
606 607
607 608
608 609
609 610
610 611
611 612
612 613
613 614
614 615
615 616
616 617
618 619
619 620
620 621
621 622
622 623
623 624
624 625
625 626
626 627
627 628
628 629
629 630
630 631
631 632
632 633
633 634
634 635
635 636
636 637
637 638
638 639
639 640
640 641
641 642
642 643
643 644
644 645
645 646
646 647
647 648
648 649
649 650
650 651
651 652
652 653
653 654
654 655
655 656
656 657
657 658
658 659
659 660
660 661
661 662
662 663
663 664
664 665
665 666
666 667
667 668
668 669
669 670
670 671
671 672
672 673
673 674
674 675
675 676
676 677
677 678
678 679
679 680
680 681
681 682
682 683
683 684
684 685
685 686
686 687
688 689
690 691
691 692
692 693
693 694
694 695
695 696
696 697
697 698
698 699
699 700
700 701
701 702
702 703
703 704
704 705
705 706
706 707
707 708
708 709
709 710
710 711
711 712
712 713
713 714
714 715
715 716
716 717
717 718
718 719
719 720
720 721
721 722
722 723
723 724
724 725
725 726
726 727
727 728
728 729
729 730
730 731
731 732
732 733
733 734
734 735
735 736
736 737
737 738
738 739
739 740
740 741
741 742
742 743
743 744
744 745
745 746
746 747
747 748
748 749
749 750
750 751
751 752
752 753
753 754
754 755
755 756
756 757
757 758
758 759
759 760
760 761
761 762
762 763
763 764
764 765
765 766
766 767
767 768
768 769
769 770
770 771
771 772
772 773
773 774
774 775
775 776
776 777
777 778
778 779
779 780
780 781
781 782
782 783
783 784
784 785
785 786
786 787
787 788
788 789
789 790
790 791
791 792
792 793
793 794
794 795
795 796
796 797
797 798
798 799
799 800
800 801
801 802
802 803
803 804
804 805
805 806
806 807
807 808
808 809
809 810
810 811
811 812
812 813
813 814
814 815
815 816
816 817
817 818
818 819
819 820
820 821
821 822
822 823
823 824
824 825
825 826
826 827
827 828
828 829
829 830
830 831
831 832
832 833
833 834
834 835
835 836
836 837
837 838
838 839
839 840
840 841
841 842
842 843
843 844
844 845
845 846
846 847
847 848
848 849
